
-7.7
-7.7
-7.4
-7.0
-7.0
-7.0
-6.9
-6.7
-6.7
-6.4
-6.3
-6.3
-6.3
-6.2
-6.1
-6.1
-6.0
-6.0
-6.0
-5.9
-7.6
-7.1
-6.9
-6.9
-6.9
-6.6
-6.6
-6.5
-6.5
-6.5
-6.4
-6.3
-6.2
-6.2
-6.0
-6.0
-5.8
-5.8
-5.7
-5.7
-5.7
-5.7
-5.7
-5.7
-5.7
-5.7
-5.7
-5.7
-5.7
-5.7
-5.7
-5.7